NAME : instances/clustered-mixed-tsp/instance-5.tsp
COMMENT : No Comment
TYPE : TSP
DIMENSION: 46
EDGE_WEIGHT_TYPE : EUC_2D
NODE_COORD_SECTION
1 325 1790 
2 1652 410 
3 555 1195 
4 1184 1871 
5 1064 1909 
6 534 1299 
7 887 1295 
8 411 1573 
9 636 1196 
10 1632 450 
11 1058 1959 
12 500 1335 
13 489 1345 
14 1122 1916 
15 1724 382 
16 601 1220 
17 341 1824 
18 2039 1335 
19 597 1309 
20 380 1550 
21 505 1268 
22 389 1686 
23 407 1286 
24 357 1795 
25 1684 464 
26 409 1682 
27 585 1347 
28 1151 1861 
29 324 1744 
30 550 1278 
31 642 1133 
32 400 1749 
33 1613 405 
34 1914 1458 
35 -76 1293 
36 515 1327 
37 544 1249 
38 1112 1852 
39 365 1774 
40 1890 1461 
41 1613 508 
42 397 1852 
43 1143 1985 
44 482 1327 
45 538 1200 
46 507 1238 
EOF
